COLUMNS

passenger_count
pickup_ID
dropoff_ID
request_time_sec
pickup_district
dropoff_district
LDuals
IDuals
vehicle_ID
pick_position
drop_position

REQUESTS_INFO
2      749       512       29466     290       199       179.5     179.5     14        1         4         
2      749       727       29481     290       290       164.5     164.5     14        2         3         
1      804       768       29458     291       290       162       162       30        1         2         
1      388       576       29396     299       189       192       192       58        1         2         
2      908       293       29411     290       87        332       332       63        1         3         
3      908       293       29411     290       87        342       342       68        1         2         
1      924       604       29446     290       189       233       233       82        1         3         
1      840       995       29406     290       84        257       257       143       1         2         
1      782       536       29488     291       189       122       122       165       1         2         
2      864       20        29436     290       98        233       233       186       1         3         
1      254       247       29466     87        266       161       161       219       1         2         
1      456       552       29484     52        189       80        80        229       1         2         
1      950       760       29479     290       291       192       192       233       1         4         
2      909       583       29470     290       189       257       257       233       2         3         
2      859       702       29457     290       290       184       184       257       1         4         
1      859       768       29458     290       290       183       183       257       2         3         
2      969       721       29464     290       290       201       201       265       1         2         
1      332       289       29487     87        127       105       105       268       1         2         
1      396       601       29463     119       189       113       113       289       1         2         
1      891       925       29470     291       290       198       198       302       1         3         
1      887       674       29429     290       189       282       282       303       1         5         
1      887       669       29453     290       280       128       128       303       2         6         
2      928       22        29403     290       98        285       285       332       1         3         
3      218       329       29463     87        127       182       182       385       1         2         
1      795       744       29422     290       290       242       242       424       1         2         
1      884       1032      29460     290       84        214       214       454       1         4         
1      817       672       29437     290       189       200       200       492       1         4         
1      1098      1032      29483     84        84        157       157       568       1         2         
2      180       332       29478     178       87        217       217       612       1         2         
1      680       533       29443     290       199       188       188       662       1         2         
1      815       628       29485     290       189       159       159       711       1         3         
3      927       810       29386     290       290       321       321       738       1         2         
1      947       727       29482     290       290       219       219       756       1         3         
1      1035      1118      29485     84        84        146       146       783       1         2         
2      1225      938       29437     192       291       179       179       806       1         2         
1      413       461       29468     52        189       102       102       813       1         3         
1      106       356       29461     178       119       170       170       831       1         2         
1      848       1010      29461     291       290       215       215       833       1         3         
3      925       928       29448     290       290       248       248       856       1         2         
3      925       928       29448     290       290       248       248       903       1         2         
3      841       1064      29350     290       291       378       378       925       1         2         
1      216       183       29462     178       178       166       166       935       1         2         
2      818       699       29483     290       290       219       219       982       1         2         
1      794       699       29446     290       290       206       206       1003      1         2         
1      817       950       29462     290       290       196       196       1010      1         2         
1      1273      1218      29480     84        84        132       132       1018      1         2         
1      680       727       29464     290       290       153.5     153.5     1021      1         2         
3      796       599       29417     290       280       289       289       1045      1         2         
1      936       646       29480     291       280       148       148       1048      1         3         
3      180       332       29478     178       87        217       217       1063      1         2         
3      218       329       29463     87        127       182       182       1090      1         2         
2      909       528       29451     290       52        243       243       1108      1         3         
3      928       22        29403     290       98        318       318       1119      1         2         
3      909       528       29451     290       52        254       254       1143      1         3         
1      923       625       29463     290       189       203       203       1156      1         3         
3      839       699       29402     290       290       262       262       1165      1         3         
1      839       695       29484     290       189       198       198       1165      2         4         
3      840       1011      29462     290       84        231       231       1190      1         2         
2      865       746       29407     290       290       217       217       1191      1         3         
2      817       669       29410     290       280       264       264       1196      1         3         
1      1014      970       29410     84        290       274       274       1197      1         2         
2      838       728       29383     290       290       289       289       1211      1         2         
1      1048      1053      29441     291       84        233       233       1212      1         2         
1      1127      824       29452     291       291       164       164       1235      1         2         
3      926       10        29436     290       98        281       281       1243      1         2         
1      815       924       29384     290       290       281       281       1254      1         2         
2      926       959       29449     290       291       234       234       1265      1         4         
3      841       1064      29350     290       291       378       378       1270      1         2         
1      907       1065      29459     290       291       264       264       1282      1         2         
1      884       577       29461     290       189       213       213       1291      1         3         
1      947       371       29469     290       52        187       187       1334      1         3         
3      1300      1529      29417     192       296       198       198       1343      1         2         
1      1244      719       29437     192       189       188       188       1358      1         2         
1      817       1161      29472     290       84        186       186       1394      1         3         
3      980       948       29353     291       290       313       313       1412      1         3         
1      870       737       29465     291       189       189       189       1430      1         2         
3      1107      720       29473     291       290       152       152       1432      1         2         
1      328       416       29479     299       100       150       150       1444      1         2         
1      328       652       29484     299       189       153       153       1446      1         2         
3      909       21        29358     290       98        370       370       1448      1         2         
1      885       1218      29426     290       84        255       255       1451      1         3         
1      1088      1130      29364     291       291       271       271       1469      1         2         
1      161       507       29466     178       189       125       125       1474      1         4         
1      48        695       29472     98        189       105       105       1477      1         3         
1      454       116       29490     52        9         0         0         0         0         0         
4      691       719       29490     131       189       0         0         0         0         0         
1      419       717       29490     168       189       0         0         0         0         0         
1      909       925       29490     290       290       0         0         0         0         0         
2      574       483       29490     189       189       0         0         0         0         0         
1      325       711       29491     299       131       0         0         0         0         0         
1      285       175       29491     299       266       0         0         0         0         0         
1      1109      724       29491     291       290       0         0         0         0         0         
1      969       697       29491     290       189       0         0         0         0         0         
1      1003      696       29491     291       189       0         0         0         0         0         
1      948       655       29491     290       189       0         0         0         0         0         
1      793       466       29491     290       199       0         0         0         0         0         
1      817       836       29492     290       290       0         0         0         0         0         
1      509       574       29492     199       189       0         0         0         0         0         
2      924       10        29492     290       98        0         0         0         0         0         
1      668       760       29492     280       291       0         0         0         0         0         
1      345       603       29492     299       189       0         0         0         0         0         
1      814       297       29492     290       277       0         0         0         0         0         
1      118       576       29492     286       189       0         0         0         0         0         
2      772       811       29492     290       290       0         0         0         0         0         
3      772       811       29492     290       290       0         0         0         0         0         
2      452       413       29493     52        52        0         0         0         0         0         
1      395       578       29493     100       189       0         0         0         0         0         
1      817       21        29493     290       98        0         0         0         0         0         
1      333       256       29493     119       87        0         0         0         0         0         
2      804       850       29493     291       291       0         0         0         0         0         
2      631       484       29493     189       189       0         0         0         0         0         
1      479       694       29493     52        189       0         0         0         0         0         
1      619       393       29494     131       52        0         0         0         0         0         
1      549       499       29494     52        52        0         0         0         0         0         
1      805       648       29494     291       189       0         0         0         0         0         
1      350       719       29494     127       189       0         0         0         0         0         
2      509       291       29494     199       87        0         0         0         0         0         
3      509       291       29494     199       87        0         0         0         0         0         
1      693       578       29495     280       189       0         0         0         0         0         
3      155       694       29495     286       189       0         0         0         0         0         
3      155       694       29495     286       189       0         0         0         0         0         
1      395       697       29495     100       189       0         0         0         0         0         
1      1087      980       29495     291       291       0         0         0         0         0         
1      105       627       29495     287       189       0         0         0         0         0         
2      1568      1530      29495     296       296       0         0         0         0         0         
1      727       507       29495     290       189       0         0         0         0         0         
2      349       675       29496     127       189       0         0         0         0         0         
1      560       745       29496     189       290       0         0         0         0         0         
1      813       990       29496     290       290       0         0         0         0         0         
1      864       460       29496     290       189       0         0         0         0         0         
3      349       675       29496     127       189       0         0         0         0         0         
2      413       694       29497     52        189       0         0         0         0         0         
2      980       650       29497     291       189       0         0         0         0         0         
1      1014      983       29497     84        291       0         0         0         0         0         
3      413       694       29497     52        189       0         0         0         0         0         
1      654       649       29497     189       189       0         0         0         0         0         
2      744       651       29497     290       189       0         0         0         0         0         
1      488       723       29498     199       290       0         0         0         0         0         
1      458       410       29498     52        52        0         0         0         0         0         
1      828       718       29499     291       189       0         0         0         0         0         
4      476       511       29500     52        199       0         0         0         0         0         
1      837       651       29501     290       189       0         0         0         0         0         
1      556       576       29501     199       189       0         0         0         0         0         
1      1168      675       29502     291       189       0         0         0         0         0         
4      356       557       29502     119       189       0         0         0         0         0         
1      795       19        29502     290       98        0         0         0         0         0         
1      134       615       29502     9         131       0         0         0         0         0         
1      275       173       29502     87        286       0         0         0         0         0         
1      277       646       29502     87        280       0         0         0         0         0         
1      460       599       29502     189       280       0         0         0         0         0         
1      352       555       29502     119       199       0         0         0         0         0         
1      597       507       29503     131       189       0         0         0         0         0         
1      1291      670       29503     129       280       0         0         0         0         0         
1      118       647       29503     286       280       0         0         0         0         0         
1      481       624       29503     189       189       0         0         0         0         0         
1      527       698       29504     52        189       0         0         0         0         0         
1      31        227       29505     9         266       0         0         0         0         0         
1      768       698       29505     290       189       0         0         0         0         0         
2      693       31        29505     280       9         0         0         0         0         0         
1      441       745       29505     168       290       0         0         0         0         0         
1      718       828       29506     189       291       0         0         0         0         0         
1      297       555       29506     277       199       0         0         0         0         0         
1      850       463       29506     291       168       0         0         0         0         0         
1      713       503       29507     131       52        0         0         0         0         0         
1      596       436       29507     131       100       0         0         0         0         0         
1      1446      1377      29507     129       129       0         0         0         0         0         
3      305       251       29507     299       127       0         0         0         0         0         
3      305       251       29507     299       127       0         0         0         0         0         
1      201       216       29508     87        178       0         0         0         0         0         
1      555       156       29508     199       286       0         0         0         0         0         
1      292       430       29508     87        52        0         0         0         0         0         
1      310       760       29508     127       291       0         0         0         0         0         
1      1131      646       29508     291       280       0         0         0         0         0         
1      700       63        29508     290       98        0         0         0         0         0         
1      34        48        29508     98        98        0         0         0         0         0         
3      116       31        29509     9         9         0         0         0         0         0         
1      526       711       29509     52        131       0         0         0         0         0         
1      336       287       29509     277       299       0         0         0         0         0         
1      664       648       29509     131       189       0         0         0         0         0         
1      990       698       29509     290       189       0         0         0         0         0         
1      509       272       29509     199       127       0         0         0         0         0         
1      881       1010      29509     290       290       0         0         0         0         0         
2      116       31        29509     9         9         0         0         0         0         0         
1      558       676       29510     189       189       0         0         0         0         0         
2      1150      1089      29510     291       291       0         0         0         0         0         
2      745       793       29510     290       290       0         0         0         0         0         
1      372       413       29511     119       52        0         0         0         0         0         
1      1024      1595      29511     291       296       0         0         0         0         0         
3      971       399       29511     290       168       0         0         0         0         0         
2      971       399       29511     290       168       0         0         0         0         0         
2      526       544       29512     52        52        0         0         0         0         0         
3      526       544       29512     52        52        0         0         0         0         0         
2      984       719       29512     291       189       0         0         0         0         0         
1      305       365       29512     299       299       0         0         0         0         0         
1      598       675       29512     189       189       0         0         0         0         0         
1      557       485       29512     189       189       0         0         0         0         0         
1      22        581       29513     98        189       0         0         0         0         0         
1      604       116       29513     189       9         0         0         0         0         0         
1      748       395       29513     290       100       0         0         0         0         0         
1      365       192       29513     299       266       0         0         0         0         0         
2      438       576       29513     100       189       0         0         0         0         0         
1      718       848       29513     189       291       0         0         0         0         0         
1      78        604       29513     9         189       0         0         0         0         0         
1      421       627       29513     168       189       0         0         0         0         0         
1      790       717       29514     290       189       0         0         0         0         0         
1      665       601       29514     131       189       0         0         0         0         0         
1      948       651       29514     290       189       0         0         0         0         0         
1      314       291       29514     119       87        0         0         0         0         0         
2      549       718       29514     52        189       0         0         0         0         0         
3      549       718       29514     52        189       0         0         0         0         0         
1      285       155       29514     299       286       0         0         0         0         0         
1      308       348       29514     127       299       0         0         0         0         0         
1      793       604       29515     290       189       0         0         0         0         0         
3      1151      651       29515     291       189       0         0         0         0         0         
2      1151      651       29515     291       189       0         0         0         0         0         
1      458       548       29515     52        52        0         0         0         0         0         
1      618       665       29515     131       131       0         0         0         0         0         
1      397       651       29515     168       189       0         0         0         0         0         
1      364       35        29515     299       98        0         0         0         0         0         
1      256       180       29516     87        178       0         0         0         0         0         
1      772       924       29516     290       290       0         0         0         0         0         
1      1026      894       29516     291       291       0         0         0         0         0         
3      555       834       29517     199       290       0         0         0         0         0         
2      1196      1137      29517     129       84        0         0         0         0         0         
1      792       695       29517     290       189       0         0         0         0         0         
1      727       903       29517     290       290       0         0         0         0         0         
2      555       834       29517     199       290       0         0         0         0         0         
1      672       488       29518     189       199       0         0         0         0         0         
1      439       399       29518     189       168       0         0         0         0         0         
1      235       331       29518     87        127       0         0         0         0         0         
1      484       647       29519     189       280       0         0         0         0         0         
3      688       116       29519     131       9         0         0         0         0         0         
1      598       626       29519     189       189       0         0         0         0         0         
